WARNING: for repeatability, setting FPU to use double precision
============================[ Problem Statistics ]=============================
|                                                                             |
|  Number of variables:          7182                                         |
|  Number of clauses:           63742                                         |
|  Parse time:                   0.01 s                                       |
|                                                                             |
c ============================[ Search Statistics ]==============================
c | Conflicts |          ORIGINAL         |          LEARNT          | Progress |
c |           |    Vars  Clauses Literals |    Limit  Clauses Lit/Cl |          |
c ===============================================================================
c Switched to VSIDS.
c Switched to LRB.
c Switched to VSIDS.
c Switched to LRB.
c Switched to VSIDS.
c Switched to LRB.
c Switched to VSIDS.
c Switched to LRB.
c Switched to VSIDS.
c Switched to LRB.
c Switched to VSIDS.
c Switched to LRB.
c Switched to VSIDS.
c Switched to LRB.
c Switched to VSIDS.
c Switched to LRB.
c Switched to VSIDS.
c Switched to LRB.
c Switched to VSIDS.
c Switched to LRB.
c Switched to VSIDS.
c Switched to LRB.
c Switched to VSIDS.
c Switched to LRB.
c Switched to VSIDS.
c Switched to LRB.
c Switched to VSIDS.
c Switched to LRB.
c Switched to VSIDS.
c Switched to LRB.
c Switched to VSIDS.
c Switched to LRB.
c Switched to VSIDS.
c Switched to LRB.
c ===============================================================================
restarts                  : 83860
conflicts                 : 16356083       (4626 /sec)
decisions                 : 89036382       (0.00 % random) (25183 /sec)
propagations              : 7855860970     (2221965 /sec)
conflict literals         : 1694161517     (24.23 % deleted)

conflicts w/ DIP found    : 11761477       (71.91 % of conflicts)
conflicts w/ dangerous DIP: 0              (0.00 % of conflicts)
conflicts w/ DIP-learning : 234525         (1.43 % of conflicts)
decisions on ext vars     : 5036557        (5.66 % of decisions)
total ext vars            : 18860       
tried delete ext vars     : 3474        
deleted ext vars          : 3474        
max ext vars              : 15386       

Memory used               : 643.00 MB
CPU time                  : 3535.55 s
DIP computation time      : 121.562 s (3.44 % of total time)
ER_sel time               : 25.3821 s
ER_add time               : 0.075507 s
ER_delC time              : 0 s
ER_delV time              : 0.23518 s
ER_sub time               : 29.4404 s
ER_stat time              : 0 s

INDETERMINATE
